4
8
20
1 1.3 1.55 1.75 2.1
40 21 34 45 42 23 45 7 28 37 23 12 23 31 12 36 19 47 43 14 16 43 34 30 6 30 41 41 17 20 42 33 24 20 46 20 26 15 23 31 30 47 31 5 36 9 21 10 20 48 39 41 12 35 37 27 46 43 43 29 32 41 34 19 21 16 7 9 17 28 30 14 18 19 31 18 26 40 46 20 31 28 42 18 31 13 8 33 11 44 37 12 20 26 22 31 42 27 33 34 40 22 49 41 33 22 14 29 32 40 41 28 37 48 19 6 24 41 29 8 38 31 6 15 18 17 45 43 5 43 38 46 48 39 24 36 49 8 23 23 49 18 35 9 11 12 9 24 44 38 17 7 9 32 38 29 12 45 21 41 